Tried aggregator 1 time.
MIP Presolve eliminated 1748 rows and 1708 columns.
MIP Presolve modified 482507 coefficients.
Reduced MIP has 4512 rows, 4292 columns, and 592511 nonzeros.
Reduced MIP has 4292 binaries, 0 generals, 0 SOSs, and 0 indicators.
Presolve time = 4,05 sec. (4157,16 ticks)
Found incumbent of value 383,000000 after 5,82 sec. (5672,93 ticks)
Probing time = 0,05 sec. (23,57 ticks)
Tried aggregator 1 time.
MIP Presolve eliminated 25 rows and 0 columns.
MIP Presolve modified 49796 coefficients.
Reduced MIP has 4487 rows, 4292 columns, and 580771 nonzeros.
Reduced MIP has 4292 binaries, 0 generals, 0 SOSs, and 0 indicators.
Presolve time = 1,71 sec. (1435,43 ticks)
Probing time = 0,04 sec. (23,20 ticks)
Clique table members: 14164.
MIP emphasis: balance optimality and feasibility.
MIP search method: dynamic search.
Parallel mode: deterministic, using up to 8 threads.
Root relaxation solution time = 0,20 sec. (90,14 ticks)

        Nodes                                         Cuts/
   Node  Left     Objective  IInf  Best Integer    Best Bound    ItCnt     Gap

*     0+    0                          383,0000        0,0000           100,00%
*     0+    0                          273,0000        0,0000           100,00%
*     0+    0                          235,0000        0,0000           100,00%
*     0+    0                          230,0000        0,0000           100,00%
      0     0      139,1739    76      230,0000      139,1739      190   39,49%
      0     0      158,5182    85      230,0000     Cuts: 266      663   31,08%
      0     0      171,9852   124      230,0000     Cuts: 197     1253   25,22%
      0     0      178,5123   108      230,0000     Cuts: 145     1639   22,39%
*     0+    0                          202,0000      178,5123            11,63%
*     0+    0                          195,0000      178,5123             8,46%

Repeating presolve.
Tried aggregator 1 time.
MIP Presolve eliminated 2558 rows and 1315 columns.
MIP Presolve modified 155568 coefficients.
Reduced MIP has 1929 rows, 2977 columns, and 233292 nonzeros.
Reduced MIP has 2977 binaries, 0 generals, 0 SOSs, and 0 indicators.
Presolve time = 1,57 sec. (1762,92 ticks)
Probing time = 0,04 sec. (15,45 ticks)
Tried aggregator 1 time.
MIP Presolve eliminated 30 rows and 0 columns.
MIP Presolve modified 3168 coefficients.
Reduced MIP has 1899 rows, 2977 columns, and 230033 nonzeros.
Reduced MIP has 2977 binaries, 0 generals, 0 SOSs, and 0 indicators.
Presolve time = 0,38 sec. (303,82 ticks)
Represolve time = 2,12 sec. (2144,57 ticks)
Probing time = 0,02 sec. (14,33 ticks)
Clique table members: 6333.
MIP emphasis: balance optimality and feasibility.
MIP search method: dynamic search.
Parallel mode: deterministic, using up to 8 threads.
Root relaxation solution time = 0,40 sec. (322,69 ticks)

        Nodes                                         Cuts/
   Node  Left     Objective  IInf  Best Integer    Best Bound    ItCnt     Gap

*     0+    0                          195,0000      178,5123             8,46%
      0     0      180,2825    97      195,0000      180,2825     3226    7,55%
      0     0      182,7299    89      195,0000      Cuts: 58     3465    6,29%
*     0+    0                          194,0000      182,7299             5,81%
      0     0      183,6340   113      194,0000      Cuts: 37     3640    5,34%
      0     0      184,4198   109      194,0000      Cuts: 32     3783    4,94%
*     0+    0                          191,0000      184,4198             3,45%
      0     0      184,7522    88      191,0000      Cuts: 33     3894    3,27%
      0     0      184,9887   127      191,0000      Cuts: 18     3986    3,15%
      0     0      185,0000    55      191,0000      Cuts: 13     3999    3,14%
*     0+    0                          187,0000      185,0000             1,07%
*     0     0      integral     0      185,0000      Cuts: 23     4002    0,00%
      0     0        cutoff            185,0000      185,0000     4002    0,00%
Elapsed time = 19,37 sec. (16436,73 ticks, tree = 0,01 MB, solutions = 10)

GUB cover cuts applied:  104
Clique cuts applied:  67
Cover cuts applied:  3
Implied bound cuts applied:  13
Mixed integer rounding cuts applied:  21
Zero-half cuts applied:  27
Gomory fractional cuts applied:  1

Root node processing (before b&c):
  Real time             =   19,37 sec. (16438,02 ticks)
Parallel b&c, 8 threads:
  Real time             =    0,00 sec. (0,00 ticks)
  Sync time (average)   =    0,00 sec.
  Wait time (average)   =    0,00 sec.
                          ------------
Total (root+branch&cut) =   19,37 sec. (16438,02 ticks)

